
Gurobi 11.0.3 (linux64) logging started Mon 18 Nov 2024 10:56:49 PM CST

Set parameter LogFile to value "/home/dlcole3/graph_abstraction/hierarchical_graphs/git_storage/CS1/HP_low_reserves/gurobi_logs/serial/logfile_ST19_2.log"

Gurobi 11.0.3 (linux64) logging started Mon 18 Nov 2024 10:57:56 PM CST

Set parameter LogFile to value "/home/dlcole3/graph_abstraction/hierarchical_graphs/git_storage/CS1/HP_low_reserves/gurobi_logs/serial/logfile_ST19_2.log"
Gurobi Optimizer version 11.0.3 build v11.0.3rc0 (linux64 - "Ubuntu 18.04.3 LTS")

CPU model: Intel(R) Xeon(R) CPU E5-2698 v4 @ 2.20GHz, instruction set [SSE2|AVX|AVX2]
Thread count: 40 physical cores, 80 logical processors, using up to 20 threads

Optimize a model with 29168 rows, 50688 columns and 136175 nonzeros
Model fingerprint: 0x3f5f528a
Variable types: 46944 continuous, 3744 integer (3744 binary)
Coefficient statistics:
  Matrix range     [6e-01, 2e+04]
  Objective range  [2e+00, 2e+04]
  Bounds range     [5e-02, 2e+05]
  RHS range        [3e-02, 7e+03]
Presolve removed 14227 rows and 38607 columns
Presolve time: 0.36s
Presolved: 14941 rows, 12081 columns, 63523 nonzeros
Variable types: 9097 continuous, 2984 integer (2984 binary)
Found heuristic solution: objective 183018.70399
Found heuristic solution: objective 152974.84958

Root relaxation: objective 5.201108e+04, 6864 iterations, 0.27 seconds (0.19 work units)

    Nodes    |    Current Node    |     Objective Bounds      |     Work
 Expl Unexpl |  Obj  Depth IntInf | Incumbent    BestBd   Gap | It/Node Time

     0     0 52011.0849    0    5 152974.850 52011.0849  66.0%     -    1s
H    0     0                    52750.256921 52011.0849  1.40%     -    1s
     0     0 52026.6282    0   10 52750.2569 52026.6282  1.37%     -    1s
     0     0 52026.6282    0    1 52750.2569 52026.6282  1.37%     -    2s
H    0     0                    52211.485242 52046.9435  0.32%     -    2s
     0     0 52056.7167    0    4 52211.4852 52056.7167  0.30%     -    2s

Cutting planes:
  Gomory: 1

Explored 1 nodes (12530 simplex iterations) in 2.31 seconds (1.39 work units)
Thread count was 20 (of 80 available processors)

Solution count 5: 52211.5 52750.3 152975 ... 773870

Optimal solution found (tolerance 3.00e-03)
Best objective 5.221148524169e+04, best bound 5.205671669891e+04, gap 0.2964%

User-callback calls 1455, time in user-callback 0.00 sec
